p cnf 214 863
1 2 3 4 5 6 7 8 9 10 11 12 13 14 15 16 17 18 19 20 21 22 0
23 24 25 26 27 28 29 30 31 32 33 34 35 36 37 38 39 40 41 42 43 44 45 0
46 47 48 49 50 51 52 53 54 55 56 57 58 59 60 61 62 63 64 65 66 0
67 68 69 70 71 72 73 74 75 76 77 78 79 80 81 82 83 84 85 86 87 0
88 89 90 91 92 93 94 95 96 97 98 99 100 101 102 103 104 105 106 107 108 0
109 110 111 112 113 114 115 116 117 118 119 120 121 122 123 124 125 126 127 128 0
151 152 153 154 155 156 157 158 159 160 161 162 163 164 165 166 167 168 169 170 171 0
172 173 174 175 176 177 178 179 180 181 182 183 184 185 186 187 188 189 190 191 192 193 194 0
195 196 197 198 199 200 201 202 203 204 205 206 207 208 209 210 211 212 213 214 0
-1 -23 0
-1 -46 0
-1 -67 0
-1 -109 0
-1 -129 0
-1 -151 0
-1 -172 0
-1 -195 0
-23 -46 0
-23 -67 0
-23 -109 0
-23 -129 0
-23 -151 0
-23 -172 0
-23 -195 0
-46 -67 0
-46 -109 0
-46 -129 0
-46 -151 0
-46 -172 0
-46 -195 0
-67 -109 0
-67 -129 0
-67 -151 0
-67 -172 0
-67 -195 0
-109 -129 0
-109 -151 0
-109 -172 0
-109 -195 0
-129 -151 0
-129 -172 0
-129 -195 0
-151 -172 0
-151 -195 0
-172 -195 0
-2 -24 0
-2 -47 0
-2 -68 0
-2 -88 0
-2 -130 0
-2 -152 0
-2 -173 0
-2 -196 0
-24 -47 0
-24 -68 0
-24 -88 0
-24 -130 0
-24 -152 0
-24 -173 0
-24 -196 0
-47 -68 0
-47 -88 0
-47 -130 0
-47 -152 0
-47 -173 0
-47 -196 0
-68 -88 0
-68 -130 0
-68 -152 0
-68 -173 0
-68 -196 0
-88 -130 0
-88 -152 0
-88 -173 0
-88 -196 0
-130 -152 0
-130 -173 0
-130 -196 0
-152 -173 0
-152 -196 0
-173 -196 0
-3 -25 0
-3 -48 0
-3 -89 0
-3 -110 0
-3 -131 0
-3 -174 0
-3 -197 0
-25 -48 0
-25 -89 0
-25 -110 0
-25 -131 0
-25 -174 0
-25 -197 0
-48 -89 0
-48 -110 0
-48 -131 0
-48 -174 0
-48 -197 0
-89 -110 0
-89 -131 0
-89 -174 0
-89 -197 0
-110 -131 0
-110 -174 0
-110 -197 0
-131 -174 0
-131 -197 0
-174 -197 0
-4 -26 0
-4 -69 0
-4 -90 0
-4 -111 0
-4 -132 0
-4 -153 0
-4 -175 0
-4 -198 0
-26 -69 0
-26 -90 0
-26 -111 0
-26 -132 0
-26 -153 0
-26 -175 0
-26 -198 0
-69 -90 0
-69 -111 0
-69 -132 0
-69 -153 0
-69 -175 0
-69 -198 0
-90 -111 0
-90 -132 0
-90 -153 0
-90 -175 0
-90 -198 0
-111 -132 0
-111 -153 0
-111 -175 0
-111 -198 0
-132 -153 0
-132 -175 0
-132 -198 0
-153 -175 0
-153 -198 0
-175 -198 0
-5 -27 0
-5 -49 0
-5 -70 0
-5 -91 0
-5 -112 0
-5 -133 0
-5 -176 0
-5 -199 0
-27 -49 0
-27 -70 0
-27 -91 0
-27 -112 0
-27 -133 0
-27 -176 0
-27 -199 0
-49 -70 0
-49 -91 0
-49 -112 0
-49 -133 0
-49 -176 0
-49 -199 0
-70 -91 0
-70 -112 0
-70 -133 0
-70 -176 0
-70 -199 0
-91 -112 0
-91 -133 0
-91 -176 0
-91 -199 0
-112 -133 0
-112 -176 0
-112 -199 0
-133 -176 0
-133 -199 0
-176 -199 0
-6 -28 0
-6 -50 0
-6 -71 0
-6 -92 0
-6 -113 0
-6 -134 0
-6 -154 0
-6 -177 0
-6 -200 0
-28 -50 0
-28 -71 0
-28 -92 0
-28 -113 0
-28 -134 0
-28 -154 0
-28 -177 0
-28 -200 0
-50 -71 0
-50 -92 0
-50 -113 0
-50 -134 0
-50 -154 0
-50 -177 0
-50 -200 0
-71 -92 0
-71 -113 0
-71 -134 0
-71 -154 0
-71 -177 0
-71 -200 0
-92 -113 0
-92 -134 0
-92 -154 0
-92 -177 0
-92 -200 0
-113 -134 0
-113 -154 0
-113 -177 0
-113 -200 0
-134 -154 0
-134 -177 0
-134 -200 0
-154 -177 0
-154 -200 0
-177 -200 0
-7 -29 0
-7 -51 0
-7 -72 0
-7 -93 0
-7 -114 0
-7 -155 0
-7 -178 0
-7 -201 0
-29 -51 0
-29 -72 0
-29 -93 0
-29 -114 0
-29 -155 0
-29 -178 0
-29 -201 0
-51 -72 0
-51 -93 0
-51 -114 0
-51 -155 0
-51 -178 0
-51 -201 0
-72 -93 0
-72 -114 0
-72 -155 0
-72 -178 0
-72 -201 0
-93 -114 0
-93 -155 0
-93 -178 0
-93 -201 0
-114 -155 0
-114 -178 0
-114 -201 0
-155 -178 0
-155 -201 0
-178 -201 0
-8 -30 0
-8 -52 0
-8 -73 0
-8 -94 0
-8 -115 0
-8 -135 0
-8 -156 0
-8 -179 0
-8 -202 0
-30 -52 0
-30 -73 0
-30 -94 0
-30 -115 0
-30 -135 0
-30 -156 0
-30 -179 0
-30 -202 0
-52 -73 0
-52 -94 0
-52 -115 0
-52 -135 0
-52 -156 0
-52 -179 0
-52 -202 0
-73 -94 0
-73 -115 0
-73 -135 0
-73 -156 0
-73 -179 0
-73 -202 0
-94 -115 0
-94 -135 0
-94 -156 0
-94 -179 0
-94 -202 0
-115 -135 0
-115 -156 0
-115 -179 0
-115 -202 0
-135 -156 0
-135 -179 0
-135 -202 0
-156 -179 0
-156 -202 0
-179 -202 0
-9 -53 0
-9 -74 0
-9 -95 0
-9 -136 0
-9 -157 0
-9 -180 0
-53 -74 0
-53 -95 0
-53 -136 0
-53 -157 0
-53 -180 0
-74 -95 0
-74 -136 0
-74 -157 0
-74 -180 0
-95 -136 0
-95 -157 0
-95 -180 0
-136 -157 0
-136 -180 0
-157 -180 0
-10 -31 0
-10 -54 0
-10 -75 0
-10 -96 0
-10 -116 0
-10 -137 0
-10 -158 0
-10 -181 0
-31 -54 0
-31 -75 0
-31 -96 0
-31 -116 0
-31 -137 0
-31 -158 0
-31 -181 0
-54 -75 0
-54 -96 0
-54 -116 0
-54 -137 0
-54 -158 0
-54 -181 0
-75 -96 0
-75 -116 0
-75 -137 0
-75 -158 0
-75 -181 0
-96 -116 0
-96 -137 0
-96 -158 0
-96 -181 0
-116 -137 0
-116 -158 0
-116 -181 0
-137 -158 0
-137 -181 0
-158 -181 0
-11 -32 0
-11 -55 0
-11 -76 0
-11 -97 0
-11 -138 0
-11 -159 0
-11 -182 0
-11 -203 0
-32 -55 0
-32 -76 0
-32 -97 0
-32 -138 0
-32 -159 0
-32 -182 0
-32 -203 0
-55 -76 0
-55 -97 0
-55 -138 0
-55 -159 0
-55 -182 0
-55 -203 0
-76 -97 0
-76 -138 0
-76 -159 0
-76 -182 0
-76 -203 0
-97 -138 0
-97 -159 0
-97 -182 0
-97 -203 0
-138 -159 0
-138 -182 0
-138 -203 0
-159 -182 0
-159 -203 0
-182 -203 0
-12 -33 0
-12 -56 0
-12 -77 0
-12 -98 0
-12 -117 0
-12 -139 0
-12 -160 0
-12 -204 0
-33 -56 0
-33 -77 0
-33 -98 0
-33 -117 0
-33 -139 0
-33 -160 0
-33 -204 0
-56 -77 0
-56 -98 0
-56 -117 0
-56 -139 0
-56 -160 0
-56 -204 0
-77 -98 0
-77 -117 0
-77 -139 0
-77 -160 0
-77 -204 0
-98 -117 0
-98 -139 0
-98 -160 0
-98 -204 0
-117 -139 0
-117 -160 0
-117 -204 0
-139 -160 0
-139 -204 0
-160 -204 0
-13 -34 0
-13 -57 0
-13 -78 0
-13 -99 0
-13 -118 0
-13 -140 0
-13 -161 0
-13 -183 0
-13 -205 0
-34 -57 0
-34 -78 0
-34 -99 0
-34 -118 0
-34 -140 0
-34 -161 0
-34 -183 0
-34 -205 0
-57 -78 0
-57 -99 0
-57 -118 0
-57 -140 0
-57 -161 0
-57 -183 0
-57 -205 0
-78 -99 0
-78 -118 0
-78 -140 0
-78 -161 0
-78 -183 0
-78 -205 0
-99 -118 0
-99 -140 0
-99 -161 0
-99 -183 0
-99 -205 0
-118 -140 0
-118 -161 0
-118 -183 0
-118 -205 0
-140 -161 0
-140 -183 0
-140 -205 0
-161 -183 0
-161 -205 0
-183 -205 0
-14 -35 0
-14 -58 0
-14 -79 0
-14 -100 0
-14 -119 0
-14 -162 0
-14 -184 0
-14 -206 0
-35 -58 0
-35 -79 0
-35 -100 0
-35 -119 0
-35 -162 0
-35 -184 0
-35 -206 0
-58 -79 0
-58 -100 0
-58 -119 0
-58 -162 0
-58 -184 0
-58 -206 0
-79 -100 0
-79 -119 0
-79 -162 0
-79 -184 0
-79 -206 0
-100 -119 0
-100 -162 0
-100 -184 0
-100 -206 0
-119 -162 0
-119 -184 0
-119 -206 0
-162 -184 0
-162 -206 0
-184 -206 0
-15 -36 0
-15 -59 0
-15 -80 0
-15 -120 0
-15 -141 0
-15 -163 0
-15 -185 0
-15 -207 0
-36 -59 0
-36 -80 0
-36 -120 0
-36 -141 0
-36 -163 0
-36 -185 0
-36 -207 0
-59 -80 0
-59 -120 0
-59 -141 0
-59 -163 0
-59 -185 0
-59 -207 0
-80 -120 0
-80 -141 0
-80 -163 0
-80 -185 0
-80 -207 0
-120 -141 0
-120 -163 0
-120 -185 0
-120 -207 0
-141 -163 0
-141 -185 0
-141 -207 0
-163 -185 0
-163 -207 0
-185 -207 0
-37 -60 0
-37 -81 0
-37 -101 0
-37 -142 0
-37 -164 0
-37 -186 0
-37 -208 0
-60 -81 0
-60 -101 0
-60 -142 0
-60 -164 0
-60 -186 0
-60 -208 0
-81 -101 0
-81 -142 0
-81 -164 0
-81 -186 0
-81 -208 0
-101 -142 0
-101 -164 0
-101 -186 0
-101 -208 0
-142 -164 0
-142 -186 0
-142 -208 0
-164 -186 0
-164 -208 0
-186 -208 0
-16 -38 0
-16 -61 0
-16 -102 0
-16 -121 0
-16 -143 0
-16 -165 0
-16 -187 0
-38 -61 0
-38 -102 0
-38 -121 0
-38 -143 0
-38 -165 0
-38 -187 0
-61 -102 0
-61 -121 0
-61 -143 0
-61 -165 0
-61 -187 0
-102 -121 0
-102 -143 0
-102 -165 0
-102 -187 0
-121 -143 0
-121 -165 0
-121 -187 0
-143 -165 0
-143 -187 0
-165 -187 0
-17 -39 0
-17 -62 0
-17 -103 0
-17 -122 0
-17 -144 0
-17 -166 0
-17 -188 0
-17 -209 0
-39 -62 0
-39 -103 0
-39 -122 0
-39 -144 0
-39 -166 0
-39 -188 0
-39 -209 0
-62 -103 0
-62 -122 0
-62 -144 0
-62 -166 0
-62 -188 0
-62 -209 0
-103 -122 0
-103 -144 0
-103 -166 0
-103 -188 0
-103 -209 0
-122 -144 0
-122 -166 0
-122 -188 0
-122 -209 0
-144 -166 0
-144 -188 0
-144 -209 0
-166 -188 0
-166 -209 0
-188 -209 0
-18 -40 0
-18 -82 0
-18 -104 0
-18 -123 0
-18 -145 0
-18 -167 0
-18 -189 0
-18 -210 0
-40 -82 0
-40 -104 0
-40 -123 0
-40 -145 0
-40 -167 0
-40 -189 0
-40 -210 0
-82 -104 0
-82 -123 0
-82 -145 0
-82 -167 0
-82 -189 0
-82 -210 0
-104 -123 0
-104 -145 0
-104 -167 0
-104 -189 0
-104 -210 0
-123 -145 0
-123 -167 0
-123 -189 0
-123 -210 0
-145 -167 0
-145 -189 0
-145 -210 0
-167 -189 0
-167 -210 0
-189 -210 0
-19 -41 0
-19 -63 0
-19 -83 0
-19 -105 0
-19 -124 0
-19 -146 0
-19 -168 0
-19 -190 0
-19 -211 0
-41 -63 0
-41 -83 0
-41 -105 0
-41 -124 0
-41 -146 0
-41 -168 0
-41 -190 0
-41 -211 0
-63 -83 0
-63 -105 0
-63 -124 0
-63 -146 0
-63 -168 0
-63 -190 0
-63 -211 0
-83 -105 0
-83 -124 0
-83 -146 0
-83 -168 0
-83 -190 0
-83 -211 0
-105 -124 0
-105 -146 0
-105 -168 0
-105 -190 0
-105 -211 0
-124 -146 0
-124 -168 0
-124 -190 0
-124 -211 0
-146 -168 0
-146 -190 0
-146 -211 0
-168 -190 0
-168 -211 0
-190 -211 0
-42 -84 0
-42 -106 0
-42 -125 0
-42 -147 0
-42 -169 0
-42 -191 0
-42 -212 0
-84 -106 0
-84 -125 0
-84 -147 0
-84 -169 0
-84 -191 0
-84 -212 0
-106 -125 0
-106 -147 0
-106 -169 0
-106 -191 0
-106 -212 0
-125 -147 0
-125 -169 0
-125 -191 0
-125 -212 0
-147 -169 0
-147 -191 0
-147 -212 0
-169 -191 0
-169 -212 0
-191 -212 0
-20 -43 0
-20 -64 0
-20 -85 0
-20 -126 0
-20 -148 0
-20 -170 0
-20 -192 0
-43 -64 0
-43 -85 0
-43 -126 0
-43 -148 0
-43 -170 0
-43 -192 0
-64 -85 0
-64 -126 0
-64 -148 0
-64 -170 0
-64 -192 0
-85 -126 0
-85 -148 0
-85 -170 0
-85 -192 0
-126 -148 0
-126 -170 0
-126 -192 0
-148 -170 0
-148 -192 0
-170 -192 0
-21 -44 0
-21 -65 0
-21 -86 0
-21 -107 0
-21 -127 0
-21 -149 0
-21 -193 0
-21 -213 0
-44 -65 0
-44 -86 0
-44 -107 0
-44 -127 0
-44 -149 0
-44 -193 0
-44 -213 0
-65 -86 0
-65 -107 0
-65 -127 0
-65 -149 0
-65 -193 0
-65 -213 0
-86 -107 0
-86 -127 0
-86 -149 0
-86 -193 0
-86 -213 0
-107 -127 0
-107 -149 0
-107 -193 0
-107 -213 0
-127 -149 0
-127 -193 0
-127 -213 0
-149 -193 0
-149 -213 0
-193 -213 0
-22 -45 0
-22 -66 0
-22 -87 0
-22 -108 0
-22 -128 0
-22 -150 0
-22 -171 0
-22 -194 0
-22 -214 0
-45 -66 0
-45 -87 0
-45 -108 0
-45 -128 0
-45 -150 0
-45 -171 0
-45 -194 0
-45 -214 0
-66 -87 0
-66 -108 0
-66 -128 0
-66 -150 0
-66 -171 0
-66 -194 0
-66 -214 0
-87 -108 0
-87 -128 0
-87 -150 0
-87 -171 0
-87 -194 0
-87 -214 0
-108 -128 0
-108 -150 0
-108 -171 0
-108 -194 0
-108 -214 0
-128 -150 0
-128 -171 0
-128 -194 0
-128 -214 0
-150 -171 0
-150 -194 0
-150 -214 0
-171 -194 0
-171 -214 0
-194 -214 0
